    14
 Generated by Multiwfn (http://sobereva.com/multiwfn)
S      -2.58925135      0.90509643      1.01083483
S      -2.96340035     -0.46592857     -0.57780217
S       0.20682065     -1.57600857      0.83815683
S       0.79199465      0.70439843     -1.61137317
S       0.55535565      1.77571243      0.12078683
S       0.96431565     -1.40175157     -1.00883017
S      -1.47936535      2.39347543      0.09154983
S      -2.00715035     -2.18323557     -0.10384117
N       4.00973365      0.69745343     -0.01353517
O       3.17345265      0.87657143      0.95736383
O       2.05514865     -1.26040857      1.77647383
O       4.02117565     -0.44011457     -0.50044017
H       1.81934565     -1.03747457      2.69990383
H       2.52831765     -0.39083457      1.39651383
