    16
 Generated by Multiwfn (http://sobereva.com/multiwfn)
S      -0.34641016     -2.19473354      0.57999762
S      -1.13241216     -0.33318454      1.26191262
S       1.25884884      2.53092746      1.13089462
S       3.33621984      0.51094446     -0.59560238
S       2.47345884     -1.30840854     -1.08535638
S       1.77763484      2.01264946     -0.70683238
S       1.72864084     -2.14303454      0.71675762
S      -1.63483516      0.74596146     -0.38198938
N      -4.84972016     -1.00247254     -1.29349338
O      -3.46196416      0.07260146     -0.82519038
H      -4.45613516     -1.86604354     -0.90537338
H      -4.61786016     -1.04218454     -2.29119638
H      -4.03800016      0.65428846     -0.26012438
O      -5.64378616      1.16278146      0.36342562
H      -5.83370516      1.88928946     -0.25459338
H      -5.85185416      0.36163846     -0.16692838
