    16
 Generated by Multiwfn (http://sobereva.com/multiwfn)
S       2.95347500     -0.06369600     -0.51000100
S       1.80082600     -1.51066400      0.68102400
S      -0.87197400     -0.72104000     -1.54462800
S      -0.63979300      2.00327800      0.53501100
S       1.18840400      2.82041100     -0.06481200
S      -1.51205400      1.20766200     -1.24179700
S       2.73951700      1.60548400      0.69114400
S       1.76360200     -3.19809500     -0.30995100
N      -4.08834200     -0.16941100      0.80199800
O      -3.16200700      0.26216400      1.44333700
O      -1.88528400     -1.72584800     -0.69673600
O      -4.43442400     -0.02045700     -0.33688900
O      -1.17080100     -1.92702400      1.84866800
H      -1.76947600     -1.23810500      2.18851200
H      -1.60510200     -2.75885300      2.10663900
H      -1.53894200     -1.82129500      0.24798900
