    15
 Generated by Multiwfn (http://sobereva.com/multiwfn)
S       2.24458000      2.22402200     -0.26462400
S       0.08965200      2.02178800     -0.27780600
S      -1.28088700     -1.43636800      0.06891000
S       1.93971600     -2.42011900     -0.11084200
S       3.36203900     -0.94143000      0.16319900
S       0.27243800     -1.92500700      1.19115500
S       2.99397800      0.57679100     -1.27055200
S      -0.51537300      1.78454400      1.59447400
N      -4.57829300     -1.06169800     -1.25253300
O      -5.25761300     -0.91595700     -0.26832800
O      -3.67873100     -0.06751300     -1.46707400
O      -3.86866700      1.70622800      0.48379000
H      -4.44432400      1.19372000      1.07936300
H      -2.99606300      1.67338900      0.91899600
H      -3.76974000      0.63519200     -0.72034700
