    15
 Generated by Multiwfn (http://sobereva.com/multiwfn)
S      -1.37946800     -0.39828100      1.43142500
S      -3.40747500     -0.99953100      0.41419400
S       2.00024900     -1.83970800      0.85799200
S      -0.15038200     -0.66842700     -1.64505800
S      -0.08370400      1.30346300     -1.23881300
S       1.73046400     -1.64666500     -1.17023200
S      -1.12418300      1.45913000      0.81405200
S      -3.96426300      0.55404300     -0.60554100
N       3.99296500      1.20674000     -0.99531100
O       3.17014100      1.99688200     -0.79175200
O       3.13078600     -0.70436100      1.28489200
O       2.17321700      1.63001300      2.05283900
H       2.44103000      2.16073900      1.28069600
H       1.20087400      1.63871100      2.01366900
H       2.67439000      0.14870300      1.57667900
