    15
 Generated by Multiwfn (http://sobereva.com/multiwfn)
S       0.34556800     -2.48295700      0.33338000
S      -0.95835300     -0.95288900      1.03613800
S       0.52812000      2.40755700      1.41842600
S       3.10606400      1.25385000     -0.42325200
S       2.82809400     -0.68353900     -1.10233200
S       1.16598200      2.22206100     -0.44594500
S       2.31247000     -1.85536200      0.58890600
S      -1.66847000      0.04553300     -0.62901900
N      -5.41130600      1.12605600     -0.38654700
O      -4.99515600     -0.11752100      0.23605800
O      -2.91405600     -0.87922000     -1.22089600
H      -3.73192500     -0.64490000     -0.68365700
H      -6.28316800      1.37064100      0.08826800
H      -5.67839100      0.87254200     -1.34105300
H      -5.70527800     -0.77481500      0.10013800
