    16
 Generated by Multiwfn (http://sobereva.com/multiwfn)
S       0.99655600      1.64786600     -0.20935000
S       0.91865900      0.84455600      1.82150200
S      -0.64093000     -2.08978800     -0.79305000
S      -3.11616800     -0.01316900      0.36122600
S      -2.21577200      0.92100600     -1.20442300
S      -1.89384600     -1.89257200      0.68606100
S      -0.91937200      2.41616200     -0.40903000
S       1.51394200     -1.03171700      1.83431800
N       2.37000200     -1.06076500     -2.43528900
O       3.18768000     -1.38038500     -1.28644500
O       3.73695100      1.00639000      0.05688000
H       3.62808700      0.16448700     -0.44112300
H       1.59375300     -0.49470800     -2.08172800
H       1.96575400     -1.95039000     -2.73705100
H       2.61457300     -1.79583300     -0.61201500
H       3.92166500      1.65626400     -0.64061600
