    13
 Generated by Multiwfn (http://sobereva.com/multiwfn)
S       0.86200800     -1.34351400      0.90474900
S       2.31251100     -0.76359300     -0.66618600
S       0.28280300      2.24376400      0.43522300
S      -1.05519100      0.25840600     -2.07649900
S      -2.02330300     -1.13309100     -0.86514900
S      -1.10565900      2.14801800     -1.07908900
S      -0.47208000     -2.44314700     -0.19936800
S       3.66071400      0.35614200      0.20445100
O      -0.58924300      2.04335300      1.84633000
H      -2.84626000      0.47616000      1.64095600
H      -0.64711900      1.08505400      2.08187200
N      -2.67658300     -0.46896800      2.07752500
O      -1.55568000     -0.47413000      2.55421800
