    15
 Generated by Multiwfn (http://sobereva.com/multiwfn)
S       0.63563900      1.39937000     -1.15289800
S       2.33659600      1.38739400      0.23759200
S       0.44282400     -2.28630800      0.04006900
S      -0.78468000     -0.31328200      2.57991300
S      -1.79521100      0.17649000      0.88699900
S       0.74753700     -1.85094700      1.91283200
S      -0.91069900      1.95043100      0.08345100
S       3.42189000     -0.20822700     -0.15357900
N      -2.66915100      1.18342600     -2.90362000
O      -1.86471200     -1.63135500     -2.35393500
H      -1.66136400     -1.50892800     -1.41240100
H      -1.45958900     -0.83885700     -2.76850300
H      -3.18225100      0.40993700     -2.47605900
H      -2.97150300      2.14526800     -2.74902600
O      -1.45155600      0.97051700     -3.26301600
