    16
 Generated by Multiwfn (http://sobereva.com/multiwfn)
S       1.33861400      1.48338000      0.28506500
S       1.21049900     -0.57339600      0.82550300
S      -2.17988000     -2.05734600      1.43940500
S      -3.22863100      0.60683900     -0.33664300
S      -1.74458900      1.87313200     -1.02585000
S      -2.41532500     -1.40748600     -0.41234400
S      -0.52251300      2.33235900      0.64758500
S       1.04660000     -1.62495900     -0.93425400
N       4.27498100      0.21472300      1.95327700
O       4.29045400      0.45627200     -1.13098500
O       2.63047800     -1.85396700     -1.46885300
H       4.30656800      0.35631700      0.92778100
H       3.72914300      1.02925800      2.27498300
H       3.01997600     -2.60656500     -0.97924800
H       3.78413200     -0.36182600     -1.30856200
H       3.79143800      1.14092600     -1.60465800
