    14
 Generated by Multiwfn (http://sobereva.com/multiwfn)
S       1.53832200      1.49438300      0.48154900
S       1.40912500     -0.56563800      1.01156000
S      -1.99645000     -2.08257000      1.31814400
S      -2.97332400      0.59393100     -0.47972000
S      -1.45242800      1.88396600     -1.03377000
S      -2.14630500     -1.41358200     -0.53668000
S      -0.35616100      2.32019300      0.72940300
S       1.37039600     -1.61734100     -0.75794700
N       4.76900400      0.68865100     -0.14104800
O       2.97830600     -1.78458100     -1.22165400
H       4.22123700     -0.08509500     -0.51981400
H       4.53787400      0.73521500      0.85135600
H       4.37965200      1.53573300     -0.55474000
H       3.36096600     -2.54323800     -0.73684800
