    14
 Generated by Multiwfn (http://sobereva.com/multiwfn)
S       1.41891400      1.41333400      0.54328100
S       1.17444000     -0.64570600      1.02940100
S      -2.34848600     -1.89298700      1.41179100
S      -3.12816900      0.70099600     -0.59132900
S      -1.49804900      1.86810000     -1.10797500
S      -2.42668000     -1.34980600     -0.48883300
S      -0.46885100      2.28770200      0.70125400
S       1.03778400     -1.66324300     -0.75201200
N       4.62786100      0.08758700     -0.48696200
O       4.25419500      0.83061100      0.49678100
O       2.62840900     -1.96849900     -1.23113100
H       5.44227500      0.37121600     -1.03220400
H       3.97867200     -0.61417100     -0.85769200
H       2.94875700     -2.76129500     -0.75583100
