    16
 Generated by Multiwfn (http://sobereva.com/multiwfn)
S      -1.38382500     -2.18383600      0.89856500
S       0.44299100     -1.19726900      0.18223200
S       0.32884500      2.35189700      0.21621700
S      -2.70999800      1.49916000     -1.01578500
S      -3.77812700     -0.11322200     -0.29070500
S      -1.57010600      2.19748000      0.72121000
S      -2.66663200     -1.87768800     -0.68672300
S       1.58471700     -0.91774700      1.75470400
N       3.69634800      0.85125600     -0.30611400
O       4.61056100      0.19929000      0.18289900
O       2.96320700      0.28490300     -1.29042500
O       3.36244700      1.98273600      0.00909300
O       3.86411400     -2.07579800     -1.70133200
H       4.82451800     -1.98002100     -1.56822800
H       3.57391600     -2.57875000     -0.91900800
H       3.35864100     -0.66946400     -1.44729500
