    14
 Generated by Multiwfn (http://sobereva.com/multiwfn)
S       0.75244900      1.27552500     -1.17590500
S       2.50435500      1.05758700      0.12365800
S       0.08294500     -2.25938100      0.21174300
S      -0.68695500     -0.04821000      2.72012100
S      -1.71711500      0.46200300      1.04950200
S       0.54650900     -1.85874500      2.05810700
S      -0.65620000      2.06294000      0.10074000
S       3.30796300     -0.70485200     -0.22137300
N      -2.84249500      1.23265500     -2.71732200
O      -1.72766100      1.37473500     -3.14360500
O      -1.39810000     -1.71886000     -2.58585800
O      -3.28675700      0.75283300     -1.70853000
H      -1.83144700     -1.42020200     -1.77007100
H      -0.75700300     -1.01036600     -2.75771500
