    13
 Generated by Multiwfn (http://sobereva.com/multiwfn)
S       0.91676600      1.77937000     -0.40543900
S      -1.16814500      2.24347300     -0.88875500
S      -1.33299000     -1.06332800      1.80262000
S      -0.88344200     -2.19543600     -1.40577500
S       0.96269300     -1.60410600     -0.77104300
S      -2.32125600     -1.50676500      0.17926700
S       1.39173000      0.26273600     -1.71370500
S      -2.22313200      2.19297300      0.77408000
O       1.80973200     -0.50275100      2.82161700
H       1.35901000     -0.91523900      2.06642400
H       1.71974500      0.44682900      2.63458800
N       3.75543400     -0.42589300      0.86632500
O       3.83497200      0.71612200      0.69022500
