    14
 Generated by Multiwfn (http://sobereva.com/multiwfn)
S       1.12475400      1.35024800     -0.94539200
S       2.70467500      0.47530000      0.34294300
S       0.19077600     -2.27488100     -0.14536500
S      -0.75170100     -0.13401100      2.37217200
S      -1.55588800      1.37052600      1.16109600
S      -1.17821900     -1.94670200      1.34512900
S       0.08432600      2.47891700      0.43342500
S       3.71434600     -0.76879100     -0.77730000
N      -3.10149700      0.56410500     -2.02046700
O      -1.98654400      0.97236700     -2.20461900
O      -0.49671000     -1.59445300     -1.53322500
O      -3.16878200     -0.74869300     -1.66097800
H      -2.23834900     -1.11822700     -1.63174700
H      -0.16397000     -0.67395700     -1.62175200
