    14
 Generated by Multiwfn (http://sobereva.com/multiwfn)
S       0.70955800      1.59004400     -0.97580700
S       2.40279700      1.06613500      0.31061200
S       0.08760400     -2.54446900      0.09409000
S      -1.17204600     -0.46119900      2.52168500
S      -1.91411800      0.28013700      0.76964600
S       0.34479500     -2.00754900      1.95490300
S      -0.80014000      2.05381800      0.34357000
S       3.07818800     -0.70377600     -0.22804200
N      -2.81027400      1.28439100     -2.04302200
O      -1.09747100     -1.26727000     -2.83081300
H      -1.34229800     -1.36118600     -1.89482300
H      -0.30547200     -0.70495200     -2.79244600
H      -2.26607800      0.52765900     -2.49091300
H      -2.42178500      2.13881700     -2.47098700
