    14
 Generated by Multiwfn (http://sobereva.com/multiwfn)
S       1.91992800     -0.32685600      1.17731900
S       1.74629800     -1.61880100     -0.73617900
S      -3.53549400     -0.63206200      0.41062700
S      -1.05888600      1.42508900     -0.76086000
S      -0.96667700      1.42239500      1.24912800
S      -2.89978300      0.15555700     -1.25130500
S       0.03732700     -0.39503100      1.90552300
S      -0.07543700     -2.28569900     -0.82323800
N       2.42369900      1.86980900     -1.08248400
O       1.85778400      2.90473900     -0.81399700
O       4.35731600     -0.24805000     -0.36830800
H       1.75990100      1.23759800     -1.60995800
H       4.04245500      0.65664900     -0.56286600
H       4.83452400     -0.14988800      0.47241800
