    12
 Generated by Multiwfn (http://sobereva.com/multiwfn)
S       1.23920600      1.74676300      0.71558600
S      -2.06772100      2.20968600      0.35717800
S      -0.46123700      1.85571300     -0.70737900
S      -2.07034900     -1.34003000      0.03959700
S       1.02435300     -1.95810900     -0.63734700
S       2.78785700     -1.13137500      0.04865100
S      -0.22926300     -1.64997600      1.02014600
S       2.68720200      0.93298600     -0.48541500
O      -4.36189300     -0.92343000     -0.56124700
H      -4.55421500     -1.57461900     -1.26045800
H      -4.35301600     -0.07299900     -1.03671900
H      -2.75837100     -1.61548600      1.17087700
