    12
 Generated by Multiwfn (http://sobereva.com/multiwfn)
S      -1.62560900      1.15618100      0.16887700
S      -1.87484600     -0.62423400     -1.07733000
S      -1.10074200     -2.10224200      0.11235000
S       0.91807500     -2.38961600     -0.43974900
S       2.11157500     -1.24423200      0.83512700
S       2.67914600      0.48501200     -0.19787800
S       1.49919000      2.07693400      0.51293000
S      -0.08653600      2.34067500     -0.78888000
H      -2.67600400      1.85554200     -0.33417100
O      -3.75672900      0.40486500      1.37993500
H      -4.15986900     -0.40849900      1.02888300
H      -3.43434000      0.13837700      2.25865200
