    12
 Generated by Multiwfn (http://sobereva.com/multiwfn)
O      -5.30524200     -0.01493900     -0.23360300
H      -5.77966900      0.79369700      0.07181000
H      -5.60516300     -0.76443300      0.33232400
H      -4.33940300      0.12132200     -0.06020300
S      -1.33198700     -1.63213000     -0.44665800
S      -1.90269700      0.10518600      0.58955800
S      -1.18102900      1.78228500     -0.45046600
S       0.56879400      2.41036600      0.50274400
S       2.21148600      1.62196900     -0.53291600
S       2.85339300     -0.10646600      0.45981900
S       2.06109100     -1.77169100     -0.53224100
S       0.35633300     -2.41146100      0.50546500
