    13
 Generated by Multiwfn (http://sobereva.com/multiwfn)
S      -0.06895000     -1.79589700      0.96237500
S       1.81374700     -1.06318100     -0.00345500
S       2.38475600      0.55800200      0.93196300
S      -1.54107000      0.97628400     -0.25765400
S      -2.21241800     -0.51469400     -1.32120200
S      -1.17995100     -2.42822800     -0.58208500
O      -0.29606800      3.38271000      1.14571000
H       0.47113700      3.12092300      0.61242100
H      -0.14981300      2.91519000      1.99875000
N      -0.53208100      0.79585500      3.32469300
O      -0.00185900      1.94540700      3.55135800
H      -0.95351000      0.61198000      2.41323100
H      -0.77467000      0.20312900      4.11865600
