    13
 Generated by Multiwfn (http://sobereva.com/multiwfn)
S      -1.43175900      0.81034700      1.81343500
S       2.27310400     -0.55099800      1.00279800
S      -0.77937200     -2.07779200      0.19957000
S      -1.81796800     -0.93349100     -1.11096100
S       1.34052700     -1.92668600     -0.20060000
S      -2.24530700      0.97464400      0.05227800
N       1.21030000      1.13620800     -2.51277000
O       0.27835700      1.67740600     -2.08713200
O       2.52499600      0.81021700      0.08768600
O       1.09973800      2.98224600      0.53011300
H       0.60593700      3.07452100     -0.30360000
H       0.40918900      2.94787500      1.21344700
H       1.86042800      1.52880700      0.32987100
