    12
 Generated by Multiwfn (http://sobereva.com/multiwfn)
S      -1.36073800     -0.12398400      1.97024700
S       2.22639700     -0.71094500      1.09108700
S      -0.36796200     -2.03484900     -0.73279600
S      -1.59074200     -0.56427200     -1.41921500
S       1.65964200     -1.30857400     -0.77677300
S      -2.44269300      0.39233500      0.43349300
N       0.25980200      2.78529800     -1.19634600
O      -0.25545900      2.66229200     -0.11876400
O       1.90960200      0.94777500      1.16387000
O       1.52654600      2.28278000     -1.27134100
H       1.75343200      1.88465900     -0.38098500
H       0.99998500      1.08011600      1.50859500
