    11
 Generated by Multiwfn (http://sobereva.com/multiwfn)
S      -0.30863200     -1.53076000      1.18395900
S       1.64817000     -1.14573500      0.16779000
S       2.34278800      0.57501500      0.79253300
S      -1.53966200      1.07667600     -0.48283100
S      -2.31921700     -0.49371100     -1.32762500
S      -1.44251000     -2.34383300     -0.25209600
O      -0.09940900      3.56862400      0.74338700
H       0.68031400      3.07876800      0.43608000
H      -0.32411500      3.11671100      1.57412600
N      -0.38709900      0.82339500      3.38281800
O      -1.06409400      1.69043400      3.02004600
