    11
 Generated by Multiwfn (http://sobereva.com/multiwfn)
S      -1.35168700      0.04882100      2.00032800
S       2.27616700      0.35075400      0.95119900
S       0.05456400     -2.00701000     -0.29476200
S      -1.32347900     -0.91050200     -1.30435200
S       2.00886600     -1.10949600     -0.46440800
S      -2.36904400      0.27342000      0.36104900
O       2.03316600      1.80641100      0.16309700
H       0.55631100      1.73751400     -2.05556600
H       1.07334500      2.04174900      0.17843600
N      -0.39214600      2.17596900     -1.91414800
O      -0.48452000      2.52523400     -0.75168500
