    14
 Generated by Multiwfn (http://sobereva.com/multiwfn)
N      -2.45881800     -1.54507200      0.13082800
O      -3.40430700     -0.87434700      0.53001800
O      -1.94100300     -1.26424200     -1.08193400
O      -1.91990900     -2.46453600      0.72906100
O      -3.14028300      0.78013300     -2.06050000
H      -3.97876700      0.82353000     -1.56642700
H      -2.63356500      1.54051000     -1.72352600
H      -2.45880400     -0.44019500     -1.45272600
S       0.39821800      1.94662800      1.05468900
S       0.94257900      1.08925500     -0.93766500
S       2.90757000      0.78050100     -0.77642600
S       2.99729100     -1.34914900      0.20006000
S       1.15455900     -1.90267400      0.45504500
S      -1.55478700      1.90266400      1.18515400
