    14
 Generated by Multiwfn (http://sobereva.com/multiwfn)
N      -3.01233800     -1.32807000      0.42008300
O      -2.09275400     -1.24021500      1.19459100
O      -1.89112700      2.28694800     -0.17455100
O      -3.10194000     -1.14523700     -0.76380500
O      -1.48749200      1.45502700      2.31708700
H      -1.86808800      0.55922600      2.32448100
H      -0.52871400      1.29380100      2.36397600
H      -1.79331700      1.99799300      0.78784100
S       0.94447300      1.96321300     -1.07204800
S      -0.98971400      1.23438600     -1.08662100
S       0.11190500     -2.15569600     -1.15005300
S       1.16595600     -2.04312800      0.52033100
S       2.74855300     -0.58752200      0.27193300
S       1.88526400      1.25082800      0.70374200
