    14
 Generated by Multiwfn (http://sobereva.com/multiwfn)
S       0.32611600     -1.40246400      0.12071600
S       1.02664400      0.04523800     -1.28198400
S      -2.79507600      1.40921900     -0.08969800
S      -2.81728900     -0.35235600      0.80584800
S      -1.65738900     -1.78220300     -0.34031300
S       0.78143600      1.90424500     -0.44744500
N       3.83349700     -1.68280900     -0.57697900
O       2.97800200     -0.18336500      1.98453600
O       2.13022300      2.15095700      0.53713400
H       3.54484700     -1.22797500      0.30812300
H       3.17414300     -2.47310400     -0.65284600
H       2.88062600      2.43840800     -0.02137300
H       2.70859800      0.65359200      1.55568100
H       2.16042600     -0.49885400      2.40193300
