    12
 Generated by Multiwfn (http://sobereva.com/multiwfn)
S      -0.43199900     -0.93399100      1.23101200
S       1.53413800     -1.18116000      0.21018600
S       2.34942600      0.58272200     -0.06893700
S      -1.42773400      1.15737200     -1.10546500
S      -2.35373000     -0.49991600     -1.51620300
S      -1.68496200     -2.02242100      0.10813700
O      -0.03314400      3.18989700      0.93283000
H       0.61646000      2.46772100      0.89100300
H      -0.78896100      2.76619500      1.37220100
N       0.28338000      1.36103000      3.72544300
O      -0.87634200      1.52813600      3.45798000
O       1.20904800      0.89139000      3.11671600
