    13
 Generated by Multiwfn (http://sobereva.com/multiwfn)
S       1.09517500     -1.82712700     -0.47786800
S      -0.54496200     -1.24054200      0.75549600
S       1.87124500      2.23010600      0.37891800
S       3.05854800      0.93265600     -0.52522800
S       2.81938900     -1.03230200      0.35818500
S      -1.31281300      0.52674500      0.02175500
N      -5.13309900      1.00072000      0.30710600
O      -4.64298800     -0.34482700      0.06865000
O      -2.35932000      0.11716500     -1.20255500
H      -3.23906600     -0.10926100     -0.77091300
H      -6.07195700      0.86784700      0.68954400
H      -5.26820000      1.40590600     -0.62239800
H      -5.25594500     -0.78081300     -0.55487600
