    13
 Generated by Multiwfn (http://sobereva.com/multiwfn)
S      -1.37001700     -2.00375000     -0.11555300
S       0.71802900     -1.79059800      0.44845800
S      -1.22162200      2.03667000      1.00397700
S      -2.64035100      1.15473000     -0.04438500
S      -1.80817500     -0.39527200     -1.32784900
S       0.86716300     -0.58098200      2.00340900
N       1.82896400      0.46648800     -2.04759000
O       1.36803500      1.32133600     -1.33307700
O       2.99680500     -0.06108500     -1.60863400
O       3.72811300      1.13061100      0.64581000
H       3.13344900      1.90150300      0.61127200
H       3.33112700      0.56811100      1.33499100
H       3.26861500      0.40530200     -0.73482800
