    12
 Generated by Multiwfn (http://sobereva.com/multiwfn)
N      -5.21670700      0.65870400     -1.13142000
O      -2.48550500      1.02607700      0.47100900
H      -2.80750600      0.21667100      0.90192000
H      -2.13060700      0.69382500     -0.37030900
H      -4.36709100      0.88986100     -0.58789700
H      -5.08682600     -0.34830100     -1.31837300
S       2.05374700     -0.16006800     -0.51222200
S       1.00055800     -1.62954000     -1.36739900
S      -0.38071500     -2.35286300      0.35616300
S      -0.02576900     -1.19595400      1.87536200
S       0.96059500      2.77274600      0.79759200
S       0.79485500      1.66410400     -0.80759300
