    14
 Generated by Multiwfn (http://sobereva.com/multiwfn)
S      -1.22498300      1.48172200      0.33665200
S       2.05711000     -1.38480300      1.37404600
S       1.04995800     -0.06000600     -1.63114900
S       2.08851400      1.25572000     -0.60437200
S       1.15422400     -1.97747800     -0.23465300
S       0.49859800      2.24034300      0.80975900
N      -2.49774200     -2.04510800      0.67564700
O      -3.02598700     -1.61281200     -0.59933300
O      -4.26220600      0.86470800     -0.18329600
H      -3.88350500     -0.02922600     -0.33970900
H      -1.89715600     -1.28412900      1.00411700
H      -1.87043000     -2.82302000      0.45829800
H      -2.27423000     -1.38644000     -1.18025500
H      -4.25967600      0.93541600      0.78451300
