    12
 Generated by Multiwfn (http://sobereva.com/multiwfn)
N       3.16856700      1.26562300     -1.07905800
O       2.63829000      1.63987900     -0.05144300
O       2.70658800     -0.62560400      1.74604000
H       3.01481000      2.00710600     -1.81273000
H       3.34965500     -1.21107400      1.31327900
H       2.77133100      0.20364800      1.23138400
S      -2.27991300      1.39814700     -0.26017800
S      -0.49181000      2.15100600     -0.24846200
S      -0.48359500     -1.82162200     -1.78189700
S       0.89819200     -1.52625900     -0.44866700
S      -0.18945600     -0.66262900      1.43066300
S      -2.08309300     -0.66197200      0.88758500
