    12
 Generated by Multiwfn (http://sobereva.com/multiwfn)
S       0.33805700     -1.54893100     -0.02511800
S       1.22283100     -0.07946900     -1.29626000
S      -2.29003700      1.70390400      0.12007900
S      -2.61148700     -0.11795800      0.81685200
S      -1.68570200     -1.58502500     -0.48237000
S       1.32487900      1.67962200     -0.24068900
N       3.49807900     -1.55201000      1.26352100
O       2.72973100      1.58680000      0.68129300
H       3.25756700     -0.57050500      1.11957000
H       3.40509400     -1.99787000      0.35077000
H       2.74989400     -1.94080100      1.83741700
H       3.48639500      1.84455700      0.11734700
