    12
 Generated by Multiwfn (http://sobereva.com/multiwfn)
S      -0.32745400     -1.47336100      0.16010500
S      -0.94627200      0.14744200      1.40346400
S       2.67923700      1.50425500     -0.24121100
S       2.69061700     -0.35477400     -0.91920200
S       1.71866800     -1.66931700      0.49721900
S      -0.85634200      1.86701900      0.28928700
N      -3.60170900     -0.65390800     -1.13988300
O      -3.12238300     -1.67648200     -0.52048100
O      -2.34283700      1.97753900     -0.50896400
H      -4.23721200     -0.81045900     -1.92255800
H      -3.17152300      0.26702400     -1.00412700
H      -2.99278600      2.37211000      0.10684600
