    13
 Generated by Multiwfn (http://sobereva.com/multiwfn)
N       3.74621800     -0.58345700     -1.64903300
O       3.95346000      0.48245500     -1.10458800
O       3.54065200      0.57143500      1.82252000
H       3.31992400     -1.24212400     -0.94067500
H       3.29996000      1.49216300      2.01486000
H       3.75516600      0.58968400      0.87113900
S      -0.80764100      2.51285700     -0.34968000
S      -2.44787800      1.42766300      0.56315500
S      -2.82383800     -0.22846700     -0.64994500
S      -2.05989700     -1.92520300      0.28641900
S      -0.05171100     -2.19343600     -0.45493200
S       1.23303700     -1.52996100      0.90772200
S       0.92346100      1.61238100     -0.06183600
