    13
 Generated by Multiwfn (http://sobereva.com/multiwfn)
S      -0.95182800     -1.56652700      0.36748100
S      -1.51770000      0.26368300      1.26306300
S       2.58629600      0.90779300     -0.85882800
S       2.07502000     -1.28950700     -1.06107300
S       2.05996200      1.53000700      0.90904000
S       1.13328800     -1.78860200      0.67509000
S      -1.31911300      1.75818400     -0.13855500
N      -4.10978900     -1.27291400     -0.96261300
O      -2.70256600      1.68719000     -1.09450400
H      -3.65549700     -0.36300200     -1.05056600
H      -4.12996200     -1.47456100      0.03724500
H      -3.45679300     -1.94648500     -1.36303200
H      -3.42348100      2.15645000     -0.62882600
