    12
 Generated by Multiwfn (http://sobereva.com/multiwfn)
S       1.21621600      1.82455700     -0.53535800
S      -0.89549000      2.26159800     -0.44355000
S       1.41754500     -1.47028800     -1.32174100
S       1.42160600      0.45494800     -2.09791300
S      -1.79305200      0.95169800      0.73725900
O       1.23659400     -0.71913500      2.37608300
H       1.52623200     -1.21713300      1.59436300
H       0.53810600     -0.14331800      2.02249100
N       3.80971500      0.38194700      1.68106100
O       3.77995400      0.22570500      0.53293100
S      -0.68858600     -2.07146500     -1.34232400
S      -1.19655400     -2.62752900      0.47624300
