    14
 Generated by Multiwfn (http://sobereva.com/multiwfn)
N       4.04708900      0.02431100     -0.08805800
O       3.75396300      1.09205300      0.39128700
O       3.38231900     -1.02848700      0.43962000
O       1.71292200     -0.25222700      2.34978900
H       2.13235400      0.57738500      2.64052500
H       0.91987800      0.05343500      1.87599600
H       2.73826900     -0.69515000      1.16762900
S      -1.08074000      2.25568200     -0.92174500
S      -2.24615500      1.52134800      0.74452900
S      -2.91147800     -0.38434700      0.24255300
S      -1.49724100     -1.77085500      0.91171200
S      -0.46030900     -2.47904300     -0.85377000
S       0.79742800     -1.13501700     -1.56132200
S       0.84138700      2.07994800     -0.46903900
