    15
 Generated by Multiwfn (http://sobereva.com/multiwfn)
N       4.35252600      0.41547400      0.08437100
O       4.31919100      0.02337400      1.22011800
O       2.02225900     -1.68356800     -0.02951200
O       3.54263400      0.91703500     -0.64698700
O       1.45793000     -0.16597600      2.07086000
H       2.33722300      0.22701500      2.21952800
H       0.94183900      0.56735200      1.68794400
H       1.83388600     -1.14607400      0.80595100
S      -1.28652400      2.28394900     -0.88054700
S      -2.43058300      1.55933400      0.79501000
S      -3.19476400     -0.29233100      0.22615800
S      -1.81250900     -1.76626800      0.79094600
S      -0.74483900     -2.37591100     -0.93342200
S       0.92649100     -1.17928700     -1.16439000
S       0.64793300      2.06529400     -0.47249700
