    13
 Generated by Multiwfn (http://sobereva.com/multiwfn)
S       0.27366300     -1.21877000      1.16050900
S       1.71258300     -1.47911400     -0.32845400
S       2.52231500      0.49153900     -0.72906800
S      -1.93344700      0.74082200     -2.30321700
S      -2.21733300      0.60016300     -0.35021900
S       1.35254600      1.54738000     -1.91419700
S      -1.61281700     -1.37542000      0.29668000
O       0.21533000      2.36461100      1.57658000
H       0.72899100      1.61565500      1.91886800
H      -0.66311100      2.20849200      1.95907700
N      -2.77828100      0.32365900      3.32224200
O      -3.64681900      0.22168700      2.49862800
O      -1.58280600      0.44481400      3.25061400
