    15
 Generated by Multiwfn (http://sobereva.com/multiwfn)
S      -0.13951600     -1.93765700      0.30182800
S      -1.19388100     -0.31694900      1.16352700
S       2.65602000      1.41694500     -0.78522600
S       2.72626600     -0.83067000     -1.06872700
S       1.98344400      1.81920900      0.99644200
S       1.92551200     -1.61273800      0.63364100
S      -1.29889500      1.21267700     -0.21859500
N      -4.71142500      1.37152300      0.30702400
O      -4.02094400     -1.64361900     -0.93379600
O      -2.58787300      0.87502800     -1.21932100
H      -5.16870800      0.53212800      0.68371000
H      -5.25838900      2.17733300      0.63293600
H      -3.42647100      1.16367400     -0.71032800
H      -3.38972900     -0.93936000     -1.17324400
H      -3.44940600     -2.39878700     -0.72354300
