    15
 Generated by Multiwfn (http://sobereva.com/multiwfn)
N      -3.42104400     -0.73463200      0.85000300
O      -3.58094000      0.37975700      1.33786800
O      -3.55048500     -0.87125400     -0.48849000
O      -3.14366200     -1.75888100      1.45140900
O      -4.00920600      1.42005500     -1.53096700
H      -4.44472700      1.92499200     -0.82063400
H      -3.12846200      1.83152900     -1.59831100
H      -3.75281600      0.07662200     -0.88041100
S       1.29403100     -2.41228900     -0.75264200
S       2.63195700     -1.53864400      0.70743500
S       3.43664000      0.16215400     -0.20328100
S       2.52342600      1.84237000      0.61304900
S       0.77122300      2.23452800     -0.59509300
S      -0.83692900      1.74222100      0.44912500
S      -0.47362000     -1.53334800     -0.76916800
