    14
 Generated by Multiwfn (http://sobereva.com/multiwfn)
S      -2.42459400     -0.47049300      0.91935000
S      -2.35528300     -1.70458800     -0.63845200
S       1.00194700     -1.91500600     -0.81102100
S       0.38372000      1.36559400     -1.78486500
S      -0.21585000      2.02007500      0.12517500
S       1.82633700     -0.17651600     -1.59498400
S      -2.24595900      1.55909000      0.23177900
N       3.43608300      0.61023100      1.22705700
O       2.59781500      1.23189800      1.73180600
O       1.65137500     -2.04974300      0.70248500
O       0.58445400     -0.81003800      2.75046400
H       1.00605500      0.06645500      2.70223000
H      -0.36630500     -0.62121900      2.68414800
H       1.11341900     -1.54425300      1.39446500
