    13
 Generated by Multiwfn (http://sobereva.com/multiwfn)
S      -0.90462100     -1.45512500      0.43134100
S      -1.24580200      0.42774600      1.33666600
S       2.81016300      0.72191800     -0.92709000
S       2.08407400     -1.41150800     -1.11143100
S       2.45208700      1.37335600      0.87347000
S       1.17148800     -1.83638200      0.66265900
S      -0.88645100      1.88831100     -0.06251500
N      -4.03280500     -0.43044500     -0.99777200
O      -3.73603800     -1.36652900     -0.16474100
O      -2.31382200      2.02853100     -0.95942200
H      -4.71359200     -0.62673000     -1.73205400
H      -3.42776300      0.39441500     -1.06825000
H      -2.92512500      2.61637600     -0.47158100
