    15
 Generated by Multiwfn (http://sobereva.com/multiwfn)
S      -0.69954100      2.19039300     -0.63075300
S       0.38105600      1.98436900      1.24563500
S      -1.84841400     -1.97223400      0.82585900
S      -2.12761700     -0.86439900     -1.00673800
S       0.03875200     -1.89359400      1.41274400
S      -2.45732000      1.11065600     -0.40333500
S       2.05775800      1.00081800      0.87151400
N       1.71601000     -0.47289900     -2.44229900
O       1.98638700     -1.56159100     -1.52805100
O       4.32398600     -0.78773200     -0.13742600
H       3.55410700     -1.13013500     -0.64355100
H       1.79860100      0.38065500     -1.88264400
H       0.72281200     -0.55572900     -2.67263400
H       1.34856800     -1.49772300     -0.78747800
H       4.56607200      0.01167000     -0.63258500
