    12
 Generated by Multiwfn (http://sobereva.com/multiwfn)
S       2.76172600     -0.67056700      1.14401300
S       3.52876100      0.75143100      0.05457400
S      -2.21635300      1.17726700      1.46373400
S      -0.00703000      1.63512000     -1.00615900
S       0.68862600     -0.28966600     -1.52679800
S      -2.06819500      1.41510500     -0.57511200
S       0.81861200     -1.37869200      0.18595800
O      -2.12273300     -0.47881600      1.74848000
H      -2.86843100     -1.72879100      0.30926800
H      -1.17609700     -0.72441400      1.82389300
N      -2.94007400     -2.29593900     -0.57824400
O      -1.81143000     -2.48558200     -0.98958000
