    13
 Generated by Multiwfn (http://sobereva.com/multiwfn)
N       4.49222000      0.68486700      0.60142700
O       3.50543800      0.75015900      1.28567900
O       2.01267600     -1.58830500      0.22457000
O       4.50658700     -0.36213400     -0.26925900
H       3.65537900     -0.87628200     -0.15624600
H       1.86934000     -0.94157200      0.94888500
S      -0.89747800      2.23963200     -0.93384400
S      -2.37864600      1.71699100      0.55462400
S      -3.12619200     -0.15640900      0.05054300
S      -1.92273300     -1.59174800      1.00107800
S      -0.74488800     -2.51766100     -0.50132100
S       0.84322200     -1.31168100     -0.96811000
S       0.90372300      2.03500300     -0.13612800
