    14
 Generated by Multiwfn (http://sobereva.com/multiwfn)
S      -0.61719400     -2.20493900      0.10045100
S       0.89522000     -1.16490700     -0.95567500
S      -2.21226200      1.98303200      0.48623400
S      -2.98929200     -0.04879300      1.12239000
S      -1.45495500      1.85045600     -1.30194400
S      -2.47625400     -1.31794900     -0.38715100
S       1.49023700      0.46477600      0.16292500
N       5.40006500      1.14144700      0.09605500
O       4.83646400     -0.18508000     -0.07517000
O       2.56755000     -0.10158600      1.29490500
H       3.45796100     -0.17481700      0.83312600
H       6.31780100      1.08973000     -0.35192400
H       5.58738500      1.22675400      1.09815900
H       5.43628900     -0.82527100      0.35468900
