    13
 Generated by Multiwfn (http://sobereva.com/multiwfn)
S       0.16337700      2.00073400     -0.82048400
S       2.05357100      1.11754100     -0.16272000
S      -1.07100200     -0.86263700      2.39398300
S      -2.16224000      0.47375100      1.09653300
S       0.22365700     -1.91294800      1.32854000
S      -0.94963800      2.16418500      0.92050200
S       2.39654900     -0.46839200     -1.28671800
N      -2.17722700      1.54024900     -2.30121600
O      -1.10745400     -1.40334800     -2.11322600
H      -1.11563400     -1.46800300     -1.14357200
H      -0.23503500     -1.01424700     -2.29525900
H      -1.97591800      0.52580500     -2.27091400
H      -1.76518700      1.82244800     -3.20433600
