    14
 Generated by Multiwfn (http://sobereva.com/multiwfn)
S       1.68026500     -2.02062800     -0.22835400
S      -0.37513300     -2.29271800      0.32493500
S       0.71920000      2.34343800     -0.49157400
S       2.64762600      1.17500400     -0.62306600
S      -0.38682300      1.59110600      0.93180200
S       2.45035600     -0.31467900      0.75252200
S      -1.63000000     -1.61436800     -1.07467200
N      -3.15401900      1.42935400     -1.14568000
O      -3.23539600      0.29247300     -0.57036000
O      -2.81485700      0.28985900      2.27952200
H      -2.97317200      0.29860700      1.31325200
H      -2.62598800      2.17679000     -0.69157500
H      -2.26231500     -0.49795700      2.40619700
H      -3.34619900      1.48394100     -2.14689800
