     9
 Generated by Multiwfn (http://sobereva.com/multiwfn)
S       0.56847800      2.18671300      0.00000000
S      -0.51778400      1.64621300      1.75136900
S       0.48380800     -0.01033600      2.41683000
S      -0.51778400     -1.67636400      1.67058000
S       0.52037900     -2.32484500      0.00000000
S      -0.51778400     -1.67636400     -1.67058000
S       0.48380800     -0.01033600     -2.41683000
S      -0.51778400      1.64621300     -1.75136900
H       0.23460200      3.50569200      0.00000000
