    12
 Generated by Multiwfn (http://sobereva.com/multiwfn)
S       1.11939500      2.03994000      0.65618500
S      -2.16872700      1.96570400      0.00344200
S      -0.43148600      1.71428600     -0.87303800
S      -1.79251900     -1.69504100     -0.65854700
S       1.55607500     -2.03046100     -0.54705100
S       2.83972500     -0.86293000      0.56515400
S      -0.30619000     -1.93579700      0.60840900
S       2.74946400      1.11839800     -0.20089600
O      -5.15809000     -0.42395300      0.56044200
H      -6.03042200     -0.88141400      0.51390500
H      -5.24857500      0.31234200      1.21051600
H      -4.50809000     -1.06491300      0.93350900
