    12
 Generated by Multiwfn (http://sobereva.com/multiwfn)
O      -4.14673000      0.02178600     -0.53392400
H      -4.03859600      0.15007700     -1.49104200
H      -4.92502900      0.56100800     -0.31256500
H      -3.22124400     -0.13181100      1.77333700
S      -1.87038100     -1.86920400      0.22108500
S      -1.89927300     -0.09897300      1.45493700
S      -1.94388900      1.61766600      0.15216100
S      -0.08351700      2.43785400      0.53580300
S       1.21994900      1.68881900     -0.94661300
S       2.18911800      0.00266300     -0.18071500
S       1.27266000     -1.69966000     -0.98377300
S       0.05284000     -2.54651700      0.51694100
