    12
 Generated by Multiwfn (http://sobereva.com/multiwfn)
O      -5.30499600     -0.01489900     -0.23367800
H      -5.77948300      0.79392100      0.07115900
H      -5.60576000     -0.76424400      0.33200600
H      -4.33929100      0.12105700     -0.05929600
S      -1.33184200     -1.63213600     -0.44658000
S      -1.90250200      0.10505000      0.58989700
S      -1.18122400      1.78228700     -0.45018900
S       0.56874400      2.41048700      0.50267100
S       2.21126200      1.62194500     -0.53313900
S       2.85327800     -0.10637800      0.45971200
S       2.06122400     -1.77174000     -0.53229900
S       0.35649700     -2.41164500      0.50536800
