    12
 Generated by Multiwfn (http://sobereva.com/multiwfn)
O      -4.88472100     -0.19486200     -0.34938800
H      -5.15136500      0.71950200     -0.55825000
H      -5.45720000     -0.43998200      0.40071500
H      -3.40417800      0.05707800      0.42712500
S      -1.59748700     -1.70636900     -0.35439800
S      -2.02498100      0.04847900      0.81933900
S      -1.48987500      1.82260000     -0.27682200
S       0.28759400      2.42516500      0.58073600
S       1.86341400      1.66066100     -0.58814900
S       2.56014500     -0.08103100      0.33328000
S       1.75966000     -1.72279300     -0.68289500
S       0.14490300     -2.45474100      0.45434200
