    12
 Generated by Multiwfn (http://sobereva.com/multiwfn)
O      -4.78288600     -0.26318900     -0.46601100
H      -5.00464400      0.64886100     -0.72523500
H      -5.46268200     -0.48467900      0.19446900
H      -3.34774500      0.11880600      0.70410900
S      -1.68328300     -1.66851000     -0.20543300
S      -1.98887200      0.08317300      1.02114300
S      -1.51603900      1.86514000     -0.10993100
S       0.32501700      2.44270000      0.60838200
S       1.79832500      1.65710300     -0.67696100
S       2.52909400     -0.09943600      0.18719700
S       1.63797800     -1.71959800     -0.78627600
S       0.10164400     -2.44666600      0.46017900
