    12
 Generated by Multiwfn (http://sobereva.com/multiwfn)
O      -4.93254800     -0.03736500     -0.29572300
H      -5.31400000      0.86756500     -0.24516000
H      -5.45003800     -0.58621200      0.33493000
H      -3.83858700      0.03522800      0.16875400
S      -1.48712800     -1.71480100     -0.36660000
S      -2.04032500      0.01515200      0.72899700
S      -1.42952300      1.74248200     -0.33991400
S       0.33532500      2.39064900      0.54536400
S       1.94425500      1.65512700     -0.58496700
S       2.67678300     -0.06113500      0.36100800
S       1.88747800     -1.73764800     -0.61026000
S       0.25421400     -2.43533700      0.50920300
