    12
 Generated by Multiwfn (http://sobereva.com/multiwfn)
O      -4.46487600     -0.37396900     -0.67404600
H      -4.74886500      0.52994800     -0.89240000
H      -5.16995200     -0.69851100     -0.08863500
H      -3.31050800      0.29502200      1.18799000
S      -1.88773900     -1.54911300     -0.05801700
S      -1.95100700      0.17698200      1.24163100
S      -1.56429400      1.96836800      0.08311000
S       0.35417600      2.47565300      0.62154600
S       1.67541800      1.63052400     -0.78858900
S       2.39674700     -0.16105600      0.01120500
S       1.37075100     -1.73794900     -0.89768900
S      -0.09394500     -2.42219400      0.45952600
