    12
 Generated by Multiwfn (http://sobereva.com/multiwfn)
O      -4.88988000     -0.28097300     -0.34968600
H      -5.06586400      0.58545500     -0.75991000
H      -5.51612700     -0.31561800      0.39600600
H      -3.37447900      0.07814100      0.53416500
S      -1.62646200     -1.69031300     -0.30402200
S      -2.01112600      0.05728600      0.90190800
S      -1.49113300      1.84727200     -0.18516300
S       0.31355700      2.42266800      0.62845900
S       1.84663600      1.67178200     -0.60587800
S       2.56479000     -0.08787500      0.26256800
S       1.71619100     -1.70722900     -0.74968900
S       0.13980300     -2.44689000      0.43687400
