    12
 Generated by Multiwfn (http://sobereva.com/multiwfn)
O      -4.16497900      0.03242700     -0.49985600
H      -4.07153800      0.12146800     -1.46299400
H      -4.93788800      0.58314600     -0.28833300
H      -3.24738700     -0.13380000      1.70146700
S      -1.85809300     -1.87192800      0.20882100
S      -1.91327800     -0.09952600      1.44131100
S      -1.93271100      1.61726400      0.13797000
S      -0.07344400      2.43303200      0.53541300
S       1.24010900      1.68877300     -0.93990600
S       2.20708900      0.00336500     -0.17015500
S       1.29353500     -1.69849800     -0.97665500
S       0.06449200     -2.54201800      0.51855000
