    12
 Generated by Multiwfn (http://sobereva.com/multiwfn)
O      -4.88189400     -0.09290300     -0.34004500
H      -5.20475500      0.82824300     -0.34901100
H      -5.41113500     -0.52294200      0.35817900
H      -3.44734200      0.02951100      0.33626000
S      -1.56420600     -1.73614400     -0.39301600
S      -2.04130800      0.01885600      0.75056400
S      -1.49397000      1.78181900     -0.35092500
S       0.25575400      2.42013800      0.53985300
S       1.86837600      1.65899800     -0.57820200
S       2.56002200     -0.06283500      0.38466900
S       1.80228500     -1.72831100     -0.62666900
S       0.16407900     -2.46072600      0.47397600
