    12
 Generated by Multiwfn (http://sobereva.com/multiwfn)
O      -4.50945000     -0.34892300     -0.62789200
H      -4.80004000      0.54829400     -0.86466300
H      -5.23045300     -0.68252900     -0.06745800
H      -3.31751300      0.27035500      1.10269600
S      -1.85571600     -1.56695900     -0.07068300
S      -1.95699300      0.16756100      1.21641800
S      -1.55279600      1.95508100      0.05893400
S       0.35692100      2.47064100      0.62156100
S       1.69822900      1.63368500     -0.77409500
S       2.42281700     -0.15330300      0.03231900
S       1.41173200     -1.73578200     -0.88370000
S      -0.06083100     -2.42441600      0.46219600
