    12
 Generated by Multiwfn (http://sobereva.com/multiwfn)
O      -4.84997400     -0.05303100     -0.31015900
H      -5.18803200      0.86559500     -0.29300100
H      -5.39573800     -0.53274500      0.34577900
H      -3.58358000      0.01199600      0.26085200
S      -1.54326400     -1.74257000     -0.38893800
S      -2.06648500     -0.00115100      0.73209500
S      -1.49540000      1.75189500     -0.35404400
S       0.25328600      2.40302900      0.53940000
S       1.87004200      1.66204700     -0.58206300
S       2.58753800     -0.05168400      0.37745900
S       1.82619700     -1.72807000     -0.61401100
S       0.19131800     -2.45160600      0.49226300
