    12
 Generated by Multiwfn (http://sobereva.com/multiwfn)
O      -4.85842900     -0.06718700     -0.32306900
H      -5.19366300      0.85073000     -0.30888700
H      -5.39419100     -0.53168700      0.34932700
H      -3.50511700      0.01919300      0.29601400
S      -1.55567500     -1.74162300     -0.39527500
S      -2.05661900      0.00774900      0.73621900
S      -1.49838100      1.76583000     -0.35903900
S       0.24827200      2.41250900      0.53628200
S       1.86576800      1.66039700     -0.57870000
S       2.56767200     -0.05640600      0.38636600
S       1.81253800     -1.72837800     -0.61660500
S       0.17373300     -2.45742300      0.48299900
