    12
 Generated by Multiwfn (http://sobereva.com/multiwfn)
O      -4.55930500     -0.33470400     -0.58457600
H      -4.83600500      0.55878300     -0.85119400
H      -5.29396500     -0.64655400     -0.02901300
H      -3.33048800      0.24241700      1.00537700
S      -1.82086300     -1.58507000     -0.08082900
S      -1.97102600      0.15694000      1.19208400
S      -1.54157200      1.94450700      0.04451400
S       0.36162000      2.46035800      0.62964700
S       1.71662400      1.63787600     -0.76120200
S       2.45266500     -0.14487800      0.04337700
S       1.45163000     -1.73346100     -0.87238100
S      -0.02341000     -2.42251000      0.46982900
