    12
 Generated by Multiwfn (http://sobereva.com/multiwfn)
O      -4.13185500      0.00336500     -0.59896300
H      -3.97710700      0.18545900     -1.54072900
H      -4.91099900      0.54319100     -0.38278800
H      -3.16351800     -0.13331000      1.90772700
S      -1.88873700     -1.86650000      0.25237800
S      -1.86888600     -0.09919600      1.48801700
S      -1.96317000      1.61838800      0.19181000
S      -0.09753600      2.44552400      0.54120400
S       1.18005600      1.68952400     -0.96025500
S       2.15773800      0.00207900     -0.20639500
S       1.23339300     -1.70058100     -1.00083700
S       0.03652800     -2.55423700      0.51446200
