    12
 Generated by Multiwfn (http://sobereva.com/multiwfn)
O      -4.13519200     -0.00621200     -0.63073900
H      -3.95584800      0.19212700     -1.56471300
H      -4.90831300      0.54460600     -0.42117300
H      -3.13181200     -0.13426800      1.97018800
S      -1.89583100     -1.86491700      0.26817100
S      -1.85165800     -0.10017500      1.50595300
S      -1.96908400      1.61831700      0.21269400
S      -0.10228600      2.44947600      0.54442000
S       1.16422300      1.69058500     -0.96496400
S       2.14486300      0.00206300     -0.21652200
S       1.21662600     -1.69952300     -1.00919600
S       0.03021700     -2.55837400      0.51151300
