    12
 Generated by Multiwfn (http://sobereva.com/multiwfn)
O      -5.08147800     -0.03632000     -0.27986800
H      -5.58555500      0.75868900      0.01300700
H      -5.42803500     -0.79936800      0.23982700
H      -4.05359100      0.11243600      0.05320500
S      -1.46196900     -1.60224200     -0.39534400
S      -1.98509700      0.14724200      0.66749500
S      -1.28498700      1.82658500     -0.39759400
S       0.49519200      2.42090600      0.50988800
S       2.09664900      1.60797900     -0.57383500
S       2.74761500     -0.12244600      0.40798200
S       1.91697200     -1.78118700     -0.56077200
S       0.23019000     -2.39856800      0.52164200
