    12
 Generated by Multiwfn (http://sobereva.com/multiwfn)
O      -4.13372400      0.01213200     -0.56696400
H      -4.00225500      0.17074800     -1.51655900
H      -4.91396100      0.54882900     -0.34658400
H      -3.19409100     -0.13232100      1.84300100
S      -1.88123700     -1.86786100      0.23734800
S      -1.88532400     -0.09884600      1.47181000
S      -1.95510500      1.61810400      0.17188900
S      -0.09198500      2.44169400      0.53847800
S       1.19784400      1.68920000     -0.95436100
S       2.17177100      0.00234000     -0.19531900
S       1.25053600     -1.70018200     -0.99304400
S       0.04343900     -2.55013300      0.51593700
