    12
 Generated by Multiwfn (http://sobereva.com/multiwfn)
O      -4.63982200     -0.34181700     -0.52403500
H      -4.87795000      0.54094400     -0.85697500
H      -5.37681800     -0.57263500      0.06748000
H      -3.34226700      0.21293900      0.88005500
S      -1.77894200     -1.60081600     -0.11614100
S      -1.98598300      0.14543400      1.14331200
S      -1.52143200      1.93620500      0.01659200
S       0.36882700      2.45000800      0.64607700
S       1.75096800      1.64659700     -0.72848800
S       2.48800500     -0.13618300      0.07417500
S       1.50528000     -1.72567500     -0.85929900
S       0.01604000     -2.42129700      0.46288000
