    12
 Generated by Multiwfn (http://sobereva.com/multiwfn)
O      -4.86812200     -0.04744500     -0.30446300
H      -5.20975900      0.87219800     -0.29223700
H      -5.41812800     -0.53696700      0.34392900
H      -3.69309800      0.01147300      0.22633300
S      -1.52264500     -1.73642600     -0.37227000
S      -2.06550500     -0.00296800      0.73778800
S      -1.47792200      1.74155500     -0.33795800
S       0.27904000      2.39252400      0.54783000
S       1.88920500      1.66251500     -0.58765700
S       2.62477000     -0.05088700      0.35939500
S       1.84787400     -1.72898200     -0.61778100
S       0.22019600     -2.44288700      0.50272400
